001 001 002 002 004 003 003 003 003 003 003 004 003 005 004 007 005 007 011 003 006 009 016 010 011 008 009 010 011 015 014
001 001 001 001 003 004 003 002 001 002 002 002 003 005 005 007 007 008 011 005 007 010 011 009 010 012 012 015 010 014 015
001 001 002 002 003 004 003 002 002 002 002 002 004 004 007 007 007 006 008 006 007 011 012 019 013 015 013 014 011 015 012
001 002 002 003 003 004 002 002 002 002 003 003 004 003 004 007 009 009 011 006 006 007 010 014 010 012 013 017 013 018 015
001 002 002 004 003 003 002 004 002 002 002 004 005 007 009 009 007 010 011 009 007 005 008 015 011 011 015 019 016 013 021
001 001 002 004 003 004 002 003 002 002 003 005 005 006 005 010 012 009 011 012 010 006 012 011 008 010 013 018 020 014 022
001 001 002 002 002 004 003 003 002 002 003 005 005 005 006 007 014 013 012 009 014 005 011 008 008 011 013 018 023 014 016
000 001 001 002 002 003 004 004 002 003 005 005 005 007 006 006 009 011 016 009 013 011 008 015 011 011 010 018 014 009 014
000 001 002 002 002 003 004 004 002 003 003 004 003 008 008 005 005 006 010 008 012 008 008 009 012 009 011 016 010 015 007
000 001 002 003 003 002 002 002 002 003 005 004 004 005 002 005 005 005 006 008 010 007 007 008 008 009 009 013 010 008 005
001 001 002 002 002 001 002 002 001 002 003 004 004 005 004 004 004 005 003 004 011 007 006 006 006 006 006 013 009 008 006
001 000 001 002 002 002 002 002 001 002 002 003 003 005 004 003 004 004 003 005 007 005 004 004 006 006 007 006 009 007 006
000 001 001 001 001 002 001 001 001 003 002 003 003 002 003 004 004 003 002 003 005 003 004 004 003 004 007 006 007 006 005
000 000 001 000 001 002 001 001 001 001 002 002 002 003 002 002 003 003 003 005 004 004 004 004 003 003 006 008 006 006 004
000 000 000 001 001 002 002 001 002 001 002 001 001 002 002 001 001 001 002 002 003 004 005 004 004 003 005 004 004 004 005
000 000 000 001 001 002 001 002 002 002 001 002 002 002 002 001 001 001 002 003 003 005 003 004 003 003 004 003 005 004 003
000 000 001 001 001 001 001 002 002 001 001 002 001 001 002 001 001 001 001 002 003 002 003 003 003 003 004 002 003 004 003
000 000 000 000 001 001 001 002 002 002 001 002 002 001 001 001 001 001 001 002 003 001 002 002 003 002 003 001 002 004 002
000 000 000 001 001 002 001 001 003 002 001 002 002 001 002 002 001 001 001 001 002 001 002 001 002 002 002 001 001 002 002
000 000 000 000 001 001 001 002 002 002 002 002 002 002 003 002 002 001 000 001 001 002 000 001 -99 002 001 001 001 001 002
000 000 000 000 001 001 001 001 001 002 001 002 002 002 002 001 001 001 000 000 000 000 000 001 -99 001 001 001 001 -99 -99
000 000 000 000 001 001 001 001 001 001 001 001 002 002 002 001 001 001 000 000 001 000 000 001 -99 001 001 001 001 -99 -99
000 000 000 000 000 001 001 001 001 001 002 001 002 001 001 001 001 001 000 001 001 000 000 001 000 001 -99 001 001 -99 -99
000 000 000 000 000 001 001 001 001 001 001 001 002 001 001 001 001 001 000 001 001 001 001 001 000 -99 -99 -99 -99 -99 000
000 000 000 000 000 000 001 001 001 001 001 001 001 001 001 001 001 001 001 001 001 001 001 001 -99 -99 -99 -99 -99 -99 000
000 000 000 000 000 000 000 000 000 000 000 001 000 001 001 001 001 001 001 003 002 001 001 001 -99 -99 -99 -99 -99 001 000
000 000 000 000 000 000 000 000 000 000 000 000 000 001 001 001 002 002 001 005 003 001 002 001 -99 -99 -99 -99 -99 001 000
000 000 000 000 000 000 000 000 000 000 000 000 001 001 003 003 003 003 003 006 003 003 003 001 001 -99 002 002 -99 001 001
000 000 000 000 000 000 000 000 000 000 000 000 001 001 002 001 002 003 004 006 004 005 006 004 003 003 002 -99 -99 001 001
000 000 000 000 000 000 000 000 000 000 000 000 001 001 002 001 002 002 004 006 003 004 007 008 006 003 002 -99 -99 -99 002
000 000 000 000 000 000 000 000 000 000 001 000 001 001 001 002 003 003 002 005 008 005 004 006 007 004 003 -99 -99 -99 002
000 000 000 000 000 000 000 000 000 000 000 000 001 001 001 004 002 002 002 005 005 004 006 006 007 004 003 002 001 002 002
000 000 000 000 000 000 000 000 000 000 000 000 001 001 002 002 002 002 002 003 002 008 005 007 006 004 003 002 002 002 002
000 000 000 000 000 000 000 000 000 000 000 000 001 001 003 003 002 003 002 002 003 007 006 007 006 005 005 004 004 002 002
000 000 000 000 000 000 000 000 000 000 000 001 000 001 001 003 003 002 003 002 005 004 007 010 011 027 009 006 005 002 003
000 000 000 000 000 000 000 000 000 000 000 000 000 001 002 002 003 002 003 004 004 003 007 010 015 025 016 010 009 005 004
000 000 000 000 000 -99 000 000 000 000 000 001 001 001 001 001 002 002 002 002 003 003 009 016 012 028 023 010 011 006 005
000 -99 -99 000 000 -99 -99 000 000 000 000 000 000 001 001 001 001 001 001 004 005 005 008 008 014 025 012 009 009 006 006
000 -99 000 000 000 000 000 000 000 000 001 000 000 000 001 000 000 001 001 004 005 005 005 006 012 011 012 011 009 006 006
000 000 000 000 000 -99 -99 000 000 001 000 000 000 000 000 001 001 000 001 001 004 006 004 007 009 009 007 009 007 005 005
000 000 000 000 000 -99 -99 -99 000 000 000 000 000 000 000 001 001 001 001 002 006 005 004 005 006 006 006 006 006 004 003
000 000 -99 000 -99 -99 -99 -99 -99 000 000 002 001 001 001 001 000 001 001 002 003 004 004 005 004 004 003 004 005 004 004
000 -99 -99 -99 -99 -99 -99 -99 -99 000 001 002 000 000 000 001 001 001 001 001 001 002 004 002 002 002 003 003 003 006 005
-99 -99 -99 -99 -99 000 -99 -99 -99 000 000 001 000 000 001 001 000 002 001 001 001 002 002 002 002 001 002 003 004 005 004
-99 -99 -99 -99 000 -99 -99 -99 -99 000 000 000 000 000 000 001 001 001 001 001 000 001 001 002 002 002 002 002 003 004 003
-99 -99 -99 -99 -99 -99 -99 -99 000 000 000 000 000 000 000 001 001 000 000 000 000 001 001 001 001 001 001 001 002 005 002
-99 -99 -99 -99 -99 -99 -99 -99 -99 000 000 000 000 000 001 001 001 001 000 000 000 001 001 002 001 000 001 001 001 002 002
-99 -99 -99 -99 -99 -99 -99 -99 -99 000 000 000 000 000 001 001 001 001 001 000 000 001 000 000 000 000 000 000 001 001 001
-99 -99 -99 -99 -99 -99 -99 -99 -99 -99 000 000 000 000 001 000 001 000 000 000 000 000 000 000 000 000 000 000 001 000 001
-99 -99 -99 -99 -99 -99 -99 -99 -99 -99 000 000 000 000 000 000 000 000 000 000 000 000 000 000 000 000 000 000 000 000 000
-99 -99 -99 -99 -99 -99 -99 -99 -99 -99 -99 000 000 000 000 000 000 000 000 000 000 000 -99 -99 -99 -99 000 -99 000 000 000
-99 -99 -99 -99 -99 -99 -99 -99 -99 -99 -99 -99 -99 -99 -99 000 -99 -99 000 000 000 -99 -99 -99 -99 -99 -99 -99 -99 -99 000
-99 -99 -99 -99 -99 -99 -99 -99 -99 -99 -99 -99 -99 -99 -99 -99 -99 000 000 000 000 -99 -99 -99 -99 -99 -99 -99 -99 -99 -99
-99 -99 -99 -99 -99 -99 -99 -99 -99 -99 -99 -99 -99 -99 -99 -99 -99 000 000 000 -99 -99 -99 -99 -99 -99 -99 -99 -99 -99 -99
-99 -99 -99 -99 -99 -99 -99 -99 -99 -99 -99 -99 -99 -99 -99 -99 -99 -99 -99 -99 -99 -99 -99 -99 -99 -99 -99 -99 -99 -99 -99
